% demand
num_movements = 23;
loading_factor = [1650, 1950, 1500, 1750, 1450, 1300, 1150, 1450, 1650, 1000, 1350, 1250, 1100, 1900, 1500, 1350, 1200, 1700, 1450, 950, 1300, 1550, 1600];
pickup_time = [0, 0, 0, 0, 1, 2, 2, 2, 3, 6, 6, 6, 6, 7, 7, 8, 8, 8, 11, 12, 12, 12, 12];
delivery_time = [1, 2, 2, 2, 2, 6, 3, 5, 4, 8, 8, 10, 7, 8, 10, 12, 11, 12, 14, 14, 13, 14, 14];

% transporter definition
total_capacity = 7000;
num_decks = 3;
capacity = [3000, 1000, 3000];

% ways out of decks
num_ways_out = 1;
paths_out = array3d(decks, ways_out, decks, [
% ways out of deck d1
2, 3, 0, 

% ways out of deck d2
3, 0, 0, 

% ways out of deck d3
0, 0, 0,	

]);

